46
1000
200	1
199	1
198	3
197	3
196	5
195	2
194	3
192	1
191	4
190	4
189	5
188	3
187	2
186	3
185	2
184	2
183	4
181	1
180	3
179	4
178	2
177	1
174	4
173	1
172	1
171	6
170	5
169	3
168	2
167	1
166	4
165	1
164	1
163	4
162	4
161	3
160	2
159	2
158	1
157	2
156	1
155	3
153	2
152	2
151	3
150	3
